results_rootrelaxation/bin018_070_026.srr.sol
solution status: optimal solution found
objective value:                     2.27017840929281
_var3119_                          0.0887323086869054 	(obj:0)
_var3190_                          0.0725344818586487 	(obj:1)
_var3227_                           0.309836288331767 	(obj:0)
_var3239_                           0.209710940696604 	(obj:0)
_var3247_                           0.335580186420296 	(obj:0)
_var3267_                           0.160369532391187 	(obj:0)
_var3270_                           0.102096855380752 	(obj:0)
_var3288_                          0.0220726957087089 	(obj:0)
_var3307_                          0.0235889939625101 	(obj:0)
_var3327_                           0.308943473552352 	(obj:0)
_var3339_                          0.0323011510199791 	(obj:0)
_var3341_                          0.0186951945003441 	(obj:0)
_var3343_                           0.236115317794872 	(obj:1)
_var3362_                           0.390261716415032 	(obj:0)
_var3366_                           0.124294045864191 	(obj:0)
_var3375_                          0.0296975236490848 	(obj:0)
_var3396_                         0.00629962002697943 	(obj:0)
_var3399_                           0.201731471738227 	(obj:0)
_var3410_                          0.0811094016635763 	(obj:0)
_var3411_                           0.078739032699423 	(obj:0)
_var3421_                             0.0594484588787 	(obj:0)
_var3424_                           0.538009451741536 	(obj:0)
_var3427_                           0.397935262476296 	(obj:0)
_var3428_                          0.0745582969017818 	(obj:1)
_var3434_                          0.0910516346699282 	(obj:0)
_var3435_                           0.365887944721958 	(obj:0)
_var3436_                           0.253274670909976 	(obj:0)
_var3439_                            0.22235022618552 	(obj:0)
_var3441_                          0.0942432422541186 	(obj:0)
_var3450_                           0.083083292931191 	(obj:0)
_var3453_                          0.0521483328195016 	(obj:1)
_var3458_                          0.0657557512532436 	(obj:0)
_var3470_                           0.203727499092345 	(obj:0)
_var3472_                          0.0334406140221518 	(obj:1)
_var3473_                           0.426654387363343 	(obj:0)
_var3479_                          0.0512237413478119 	(obj:1)
_var3480_                          0.0676567459562084 	(obj:0)
_var3483_                          0.0643686273402385 	(obj:1)
_var3484_                          0.0667989512498512 	(obj:1)
_var3486_                           0.186898953832776 	(obj:0)
_var3493_                         0.00503856034943967 	(obj:0)
_var3494_                          0.0354076259057473 	(obj:0)
_var3495_                           0.108076609523997 	(obj:1)
_var3497_                           0.171387254090767 	(obj:0)
_var3499_                          0.0329977718813028 	(obj:0)
_var3500_                           0.135123555254329 	(obj:0)
_var3501_                          0.0510379635035805 	(obj:0)
_var3502_                          0.0891873334454197 	(obj:0)
_var3504_                            0.01728937393553 	(obj:0)
_var3508_                           0.278059601704629 	(obj:0)
_var3509_                           0.118060608197267 	(obj:0)
_var3512_                            0.11528639227495 	(obj:0)
_var3515_                           0.445597126480125 	(obj:0)
_var3519_                          0.0305972018605816 	(obj:0)
_var3520_                           0.221050634444879 	(obj:1)
_var3521_                           0.281807801315717 	(obj:0)
_var3528_                           0.121523281211933 	(obj:0)
_var3530_                          0.0572078431547492 	(obj:1)
_var3534_                           0.112235033764285 	(obj:0)
_var3538_                          0.0428481996653176 	(obj:0)
_var3542_                           0.113964958786081 	(obj:1)
_var3543_                          0.0449626894044532 	(obj:0)
_var3546_                           0.244440752512377 	(obj:0)
_var3547_                          0.0108384918516385 	(obj:0)
_var3551_                           0.160736578324148 	(obj:0)
_var3554_                          0.0614089948069599 	(obj:0)
_var3555_                          0.0935421270746182 	(obj:0)
_var3556_                           0.202490317860098 	(obj:1)
_var3563_                            0.11306038437156 	(obj:0)
_var3565_                            0.01728937393553 	(obj:0)
_var3566_                           0.191439376593378 	(obj:0)
_var3568_                           0.142574414899649 	(obj:1)
_var3569_                          0.0651484183020725 	(obj:0)
_var3570_                          0.0304325803475782 	(obj:1)
_var3572_                           0.270409787948636 	(obj:0)
_var3577_                          0.0201711298249744 	(obj:0)
_var3579_                            0.23354473452018 	(obj:0)
_var3583_                           0.260562581418543 	(obj:0)
_var3584_                           0.184599654169291 	(obj:0)
_var3590_                          0.0120435634600121 	(obj:1)
_var3592_                           0.158346538098772 	(obj:1)
_var3593_                           0.129557099825147 	(obj:0)
_var3595_                          0.0792059488248021 	(obj:0)
_var3598_                           0.140552163142334 	(obj:0)
_var3601_                           0.161781003529361 	(obj:0)
_var3603_                          0.0186951945003441 	(obj:1)
_var3606_                            0.01728937393553 	(obj:0)
_var3609_                          0.0959179521019493 	(obj:0)
_var3610_                          0.0711286612938267 	(obj:0)
_var3616_                           0.144737407666333 	(obj:0)
_var3617_                          0.0478203167640677 	(obj:1)
_var3620_                          0.0397592152621492 	(obj:0)
_var3621_                           0.136117341421596 	(obj:1)
_var3622_                          0.0576095674814972 	(obj:0)
_var3623_                          0.0887323086869055 	(obj:0)
_var3624_                           0.136483411201443 	(obj:0)
_var3633_                          0.0110001910800171 	(obj:1)
_var3636_                          0.0847292852488853 	(obj:1)
_var3639_                           0.284865177808004 	(obj:0)
_var3640_                            0.20245291477959 	(obj:0)
_var3647_                           0.103160449105106 	(obj:0)
_var3648_                           0.132581362753295 	(obj:0)
_var3649_                         0.00520312577347148 	(obj:0)
_var3650_                           0.301224497519217 	(obj:0)
_var3652_                          0.0822406118748882 	(obj:0)
_var3653_                          0.0767738846147531 	(obj:0)
_var3655_                         0.00629964112465356 	(obj:0)
_var3658_                           0.165824567940344 	(obj:0)
_var3659_                           0.140880641506398 	(obj:0)
_var3662_                          0.0334531383191528 	(obj:0)
_var3663_                         0.00621856535372689 	(obj:0)
_var3665_                           0.224169910470225 	(obj:0)
_var3668_                           0.288718248273698 	(obj:0)
_var3670_                          0.0513312777129588 	(obj:0)
_var3674_                          0.0895828602030615 	(obj:0)
_var3676_                          0.0519265345638854 	(obj:0)
_var3678_                           0.155887805405326 	(obj:0)
_var3680_                          0.0219547684840983 	(obj:1)
_var3681_                          0.0300756371107927 	(obj:0)
_var3683_                           0.114493290227385 	(obj:1)
_var3686_                          0.0463962353944449 	(obj:0)
_var3688_                          0.0887323086869055 	(obj:0)
_var3689_                           0.148877419301508 	(obj:0)
_var3690_                          0.0577479584163468 	(obj:0)
_var3691_                          0.0987911552020341 	(obj:0)
_var3692_                          0.0393394138346652 	(obj:0)
_var3693_                          0.0247501541166998 	(obj:0)
_var3695_                           0.132115580756218 	(obj:0)
_var3696_                            0.17050592158934 	(obj:0)
_var3698_                          0.0235889939625094 	(obj:1)
_var3699_                          0.0597114958740504 	(obj:0)
_var3700_                          0.0160303422071744 	(obj:0)
_var3703_                          0.0612229864320898 	(obj:0)
_var3705_                          0.0929903283353168 	(obj:0)
_var3707_                          0.0911670806027518 	(obj:0)
_var3708_                          0.0501653808746785 	(obj:1)
_var3711_                          0.0576980269222106 	(obj:0)
_var3712_                          0.0304454849172326 	(obj:0)
_var3713_                          0.0874951274546533 	(obj:0)
_var3718_                          0.0294719725812564 	(obj:0)
_var3719_                          0.0634126415071696 	(obj:0)
_var3721_                          0.0642378228185575 	(obj:1)
_var3724_                          0.0274803582420826 	(obj:0)
_var3725_                          0.0267379801377141 	(obj:0)
_var3726_                          0.0106801806001239 	(obj:0)
_var3728_                         0.00755865175533501 	(obj:0)
_var3729_                           0.029160105801703 	(obj:0)
